100
100
248 19
880 16
355 5
667 11
717 3
898 13
242 19
398 22
405 3
220 23
933 3
124 20
272 11
650 15
46 1
402 20
771 6
312 2
638 3
262 4
330 9
694 23
29 16
71 8
945 18
658 4
647 6
649 18
743 25
382 13
577 10
432 22
416 18
823 3
720 11
758 1
594 1
675 24
541 22
759 13
739 16
66 10
196 16
302 13
715 11
725 18
170 8
989 12
602 13
989 23
598 24
73 16
549 24
517 17
195 25
279 9
690 19
670 10
762 24
174 3
359 25
471 5
757 9
817 8
974 7
30 21
255 4
114 4
552 5
245 21
904 23
31 18
218 1
829 6
24 2
159 9
251 6
613 9
439 6
716 14
938 20
335 17
550 23
347 1
429 16
198 7
465 4
276 10
281 4
365 6
457 25
389 9
855 3
417 21
134 7
409 21
228 18
614 2
542 11
229 20
